certificates/rado_a9_c24_N16.cnf
c Rad2 upper bound instance: x1 + 9*x2 - x3 = 24, interval [1,16]
p cnf 16 56
1 3 4 0
-1 -3 -4 0
1 4 13 0
-1 -4 -13 0
2 3 5 0
-2 -3 -5 0
2 4 14 0
-2 -4 -14 0
3 6 0
-3 -6 0
3 4 15 0
-3 -4 -15 0
3 4 7 0
-3 -4 -7 0
4 16 0
-4 -16 0
3 5 8 0
-3 -5 -8 0
3 6 9 0
-3 -6 -9 0
1 2 7 0
-1 -2 -7 0
3 7 10 0
-3 -7 -10 0
2 8 0
-2 -8 0
3 8 11 0
-3 -8 -11 0
2 3 9 0
-2 -3 -9 0
3 9 12 0
-3 -9 -12 0
2 4 10 0
-2 -4 -10 0
3 10 13 0
-3 -10 -13 0
2 5 11 0
-2 -5 -11 0
3 11 14 0
-3 -11 -14 0
2 6 12 0
-2 -6 -12 0
3 12 15 0
-3 -12 -15 0
2 7 13 0
-2 -7 -13 0
3 13 16 0
-3 -13 -16 0
2 8 14 0
-2 -8 -14 0
2 9 15 0
-2 -9 -15 0
1 16 0
-1 -16 0
2 10 16 0
-2 -10 -16 0
