certificates/rado_a9_c24_N16.drat
-16 0
4 0
1 0
-13 0
-3 0
0
